coords = array2d(1..25, 1..2, [220, 325, 983, 219, 814, 824, 126, 950, 914,
    749, 947, 840, 347, 137, 187, 669, 830, 638, 423, 567, 334, 123,
    781, 328, 867, 345, 244, 980, 432, 848, 287, 474, 727, 902, 578,
    985, 316, 116, 46, 357, 697, 379, 727, 191, 920, 138, 474, 624,
    387, 903]);

n = 25;

